(set-info :smt-lib-version 2.6)
(set-logic UF)
(set-info :source |
Generated by: David Deharbe, CLEARSY
Generated on: 2019-09-09
Generator: bxml;pog;pog2smt (Atelier B)
Application: B-method
Target solver: CVC4, Z3
|)
(set-info :license "https://creativecommons.org/licenses/by-nc/4.0/")
(set-info :category "industrial")
(set-info :status sat)
; Prelude
(declare-sort U 0)
(declare-fun |*i| (U U) U)
(declare-fun |+i| (U U) U)
(declare-fun |-i| (U U) U)
(declare-fun idiv (U U) U)
(declare-fun |*r| (U U) U)
(declare-fun |+r| (U U) U)
(declare-fun |-r| (U U) U)
(declare-fun rdiv (U U) U)
(declare-fun modulo (U U) U)
(declare-fun |<i| (U U) Bool)
(declare-fun |<=i| (U U) Bool)
(declare-fun |>i| (U U) Bool)
(declare-fun |>=i| (U U) Bool)
(declare-fun |<r| (U U) Bool)
(declare-fun |<=r| (U U) Bool)
(declare-fun |>r| (U U) Bool)
(declare-fun |>=r| (U U) Bool)
(declare-fun iuminus (U) U)
(declare-fun ruminus (U) U)
(declare-fun TRUE () U)
(declare-fun FALSE () U)
(assert (not (= TRUE FALSE)))
(declare-fun empty () U)
(declare-fun bool (Bool) U)
(declare-fun BOOL () U)
(declare-fun INT () U)
(declare-fun INTEGER () U)
(declare-fun NAT () U)
(declare-fun NAT1 () U)
(declare-fun NATURAL () U)
(declare-fun NATURAL1 () U)
(declare-fun FLOAT () U)
(declare-fun MaxInt () U)
(declare-fun MinInt () U)
(declare-fun |STRING| () U)
(declare-fun REAL () U)
(declare-fun set_prod (U U) U)
(declare-fun set_diff (U U) U)
(declare-fun mapplet (U U) U)
(declare-fun |**i| (U U) U)
(declare-fun |**r| (U U) U)
(declare-fun |+->| (U U) U)
(declare-fun |+->>| (U U) U)
(declare-fun |-->| (U U) U)
(declare-fun |-->>| (U U) U)
(declare-fun |<->| (U U) U)
(declare-fun |>+>| (U U) U)
(declare-fun |>->| (U U) U)
(declare-fun |>+>>| (U U) U)
(declare-fun |>->>| (U U) U)
(declare-fun |->| (U U) U)
(declare-fun interval (U U) U)
(declare-fun composition (U U) U)
(declare-fun binary_inter (U U) U)
(declare-fun restriction_head (U U) U)
(declare-fun semicolon (U U) U)
(declare-fun |<+| (U U) U)
(declare-fun |<-| (U U) U)
(declare-fun domain_subtraction (U U) U)
(declare-fun domain_restriction (U U) U)
(declare-fun |><| (U U) U)
(declare-fun parallel_product (U U) U)
(declare-fun binary_union (U U) U)
(declare-fun restriction_tail (U U) U)
(declare-fun concatenate (U U) U)
(declare-fun range_restriction (U U) U)
(declare-fun range_subtraction (U U) U)
(declare-fun image (U U) U)
(declare-fun apply (U U) U)
(declare-fun prj1 (U U) U)
(declare-fun prj2 (U U) U)
(declare-fun iterate (U U) U)
(declare-fun |const| (U U) U)
(declare-fun rank (U U) U)
(declare-fun father (U U) U)
(declare-fun subtree (U U) U)
(declare-fun arity (U U) U)
(declare-fun |+f| (U U) U)
(declare-fun |-f| (U U) U)
(declare-fun |*f| (U U) U)
(declare-fun |fdiv| (U U) U)
(declare-fun tbin (U U U) U)
(declare-fun son (U U U) U)
(declare-fun mem (U U) Bool)
(declare-fun subset (U U) Bool)
(declare-fun strict_subset (U U) Bool)
(declare-fun |<=f| (U U) Bool)
(declare-fun |<f| (U U) Bool)
(declare-fun |>=f| (U U) Bool)
(declare-fun |>f| (U U) Bool)
(declare-fun imax (U) U)
(declare-fun imin (U) U)
(declare-fun rmax (U) U)
(declare-fun rmin (U) U)
(declare-fun card (U) U)
(declare-fun dom (U) U)
(declare-fun ran (U) U)
(declare-fun POW (U) U)
(declare-fun POW1 (U) U)
(declare-fun FIN (U) U)
(declare-fun FIN1 (U) U)
(declare-fun union (U) U)
(declare-fun inter (U) U)
(declare-fun seq (U) U)
(declare-fun seq1 (U) U)
(declare-fun iseq (U) U)
(declare-fun iseq1 (U) U)
(declare-fun inverse (U) U)
(declare-fun size (U) U)
(declare-fun perm (U) U)
(declare-fun first (U) U)
(declare-fun last (U) U)
(declare-fun id (U) U)
(declare-fun closure (U) U)
(declare-fun closure1 (U) U)
(declare-fun tail (U) U)
(declare-fun front (U) U)
(declare-fun reverse (U) U)
(declare-fun rev (U) U)
(declare-fun conc (U) U)
(declare-fun succ (U) U)
(declare-fun pred (U) U)
(declare-fun rel (U) U)
(declare-fun fnc (U) U)
(declare-fun real (U) U)
(declare-fun floor (U) U)
(declare-fun ceiling (U) U)
(declare-fun tree (U) U)
(declare-fun btree (U) U)
(declare-fun top (U) U)
(declare-fun sons (U) U)
(declare-fun prefix (U) U)
(declare-fun postfix (U) U)
(declare-fun sizet (U) U)
(declare-fun mirror (U) U)
(declare-fun left (U) U)
(declare-fun right (U) U)
(declare-fun infix (U) U)
(declare-fun ubin (U) U)
(declare-fun SEQ (U) U)
(declare-fun SET (U) U)
; Opaque formulas
(declare-fun e0 () U)
(declare-fun g_s0_1 () U)
(declare-fun g_s1_2 () U)
(declare-fun g_s10_11 () U)
(declare-fun g_s100_100 () U)
(declare-fun g_s101_102 () U)
(declare-fun g_s102_101 () U)
(declare-fun g_s103_103 () U)
(declare-fun g_s104_104 () U)
(declare-fun g_s105_106 () U)
(declare-fun g_s106_105 () U)
(declare-fun g_s107_107 () U)
(declare-fun g_s108_108 () U)
(declare-fun g_s109_110 () U)
(declare-fun g_s11_12 () U)
(declare-fun g_s110_109 () U)
(declare-fun g_s111_111 () U)
(declare-fun g_s112_112 () U)
(declare-fun g_s113_114 () U)
(declare-fun g_s114_113 () U)
(declare-fun g_s115_115 () U)
(declare-fun g_s116_116 () U)
(declare-fun g_s117_117 () U)
(declare-fun g_s118_119 () U)
(declare-fun g_s119_118 () U)
(declare-fun g_s12_13 () U)
(declare-fun g_s120_120 () U)
(declare-fun g_s121_121 () U)
(declare-fun g_s122_122 () U)
(declare-fun g_s123_123 () U)
(declare-fun g_s125_124 () U)
(declare-fun g_s126_125 () U)
(declare-fun g_s127_126 () U)
(declare-fun g_s13_14 () U)
(declare-fun g_s14_15 () U)
(declare-fun g_s15_17 () U)
(declare-fun g_s16_16 () U)
(declare-fun g_s17_19 () U)
(declare-fun g_s18_18 () U)
(declare-fun g_s19_20 () U)
(declare-fun g_s2_3 () U)
(declare-fun g_s20_21 () U)
(declare-fun g_s21_22 () U)
(declare-fun g_s22_25 () U)
(declare-fun g_s23_24 () U)
(declare-fun g_s24_23 () U)
(declare-fun g_s25_27 () U)
(declare-fun g_s26_26 () U)
(declare-fun g_s27_28 () U)
(declare-fun g_s29_29 () U)
(declare-fun g_s3_4 () U)
(declare-fun g_s30_30 () U)
(declare-fun g_s31_31 () U)
(declare-fun g_s32_33 () U)
(declare-fun g_s33_32 () U)
(declare-fun g_s34_34 () U)
(declare-fun g_s35_35 () U)
(declare-fun g_s36_37 () U)
(declare-fun g_s37_36 () U)
(declare-fun g_s38_38 () U)
(declare-fun g_s39_39 () U)
(declare-fun g_s4_5 () U)
(declare-fun g_s40_40 () U)
(declare-fun g_s41_41 () U)
(declare-fun g_s42_42 () U)
(declare-fun g_s43_43 () U)
(declare-fun g_s44_44 () U)
(declare-fun g_s45_45 () U)
(declare-fun g_s46_47 () U)
(declare-fun g_s47_46 () U)
(declare-fun g_s48_48 () U)
(declare-fun g_s49_49 () U)
(declare-fun g_s5_6 () U)
(declare-fun g_s50_51 () U)
(declare-fun g_s51_50 () U)
(declare-fun g_s52_53 () U)
(declare-fun g_s53_52 () U)
(declare-fun g_s54_55 () U)
(declare-fun g_s55_54 () U)
(declare-fun g_s56_56 () U)
(declare-fun g_s57_57 () U)
(declare-fun g_s58_58 () U)
(declare-fun g_s59_59 () U)
(declare-fun g_s6_7 () U)
(declare-fun g_s60_61 () U)
(declare-fun g_s61_60 () U)
(declare-fun g_s62_63 () U)
(declare-fun g_s63_62 () U)
(declare-fun g_s64_65 () U)
(declare-fun g_s65_64 () U)
(declare-fun g_s66_67 () U)
(declare-fun g_s67_66 () U)
(declare-fun g_s68_68 () U)
(declare-fun g_s69_69 () U)
(declare-fun g_s7_8 () U)
(declare-fun g_s70_70 () U)
(declare-fun g_s71_71 () U)
(declare-fun g_s72_73 () U)
(declare-fun g_s73_72 () U)
(declare-fun g_s74_74 () U)
(declare-fun g_s75_75 () U)
(declare-fun g_s76_77 () U)
(declare-fun g_s77_76 () U)
(declare-fun g_s78_79 () U)
(declare-fun g_s79_78 () U)
(declare-fun g_s8_9 () U)
(declare-fun g_s80_81 () U)
(declare-fun g_s81_80 () U)
(declare-fun g_s82_83 () U)
(declare-fun g_s83_82 () U)
(declare-fun g_s84_84 () U)
(declare-fun g_s85_85 () U)
(declare-fun g_s86_86 () U)
(declare-fun g_s87_89 () U)
(declare-fun g_s88_88 () U)
(declare-fun g_s89_87 () U)
(declare-fun g_s9_10 () U)
(declare-fun g_s90_92 () U)
(declare-fun g_s91_91 () U)
(declare-fun g_s92_90 () U)
(declare-fun g_s93_93 () U)
(declare-fun g_s94_94 () U)
(declare-fun g_s95_97 () U)
(declare-fun g_s96_96 () U)
(declare-fun g_s97_95 () U)
(declare-fun g_s98_99 () U)
(declare-fun g_s99_98 () U)
; Defines
(define-fun |def_B definitions| () Bool (and (= NAT (interval e0 MaxInt)) (= INT (interval MinInt MaxInt))))
(define-fun |def_ctx| () Bool (and (not (= g_s0_1 empty)) (not (= g_s1_2 empty)) (not (= g_s2_3 empty)) (not (= g_s3_4 empty)) (subset g_s4_5 g_s0_1) (mem g_s5_6 g_s0_1) (not (mem g_s5_6 g_s4_5)) (mem g_s6_7 (|+->| NAT g_s0_1)) (mem g_s6_7 (perm g_s4_5)) (subset g_s7_8 g_s1_2) (mem g_s8_9 g_s1_2) (not (mem g_s8_9 g_s7_8)) (subset g_s9_10 g_s2_3) (mem g_s10_11 g_s2_3) (not (mem g_s10_11 g_s9_10)) (mem g_s11_12 (|+->| NAT g_s2_3)) (mem g_s11_12 (perm g_s9_10)) (subset g_s12_13 g_s3_4) (mem g_s13_14 g_s3_4) (not (mem g_s13_14 g_s12_13)) (mem g_s14_15 (|+->| NAT g_s3_4)) (mem g_s14_15 (perm g_s12_13)) (subset g_s15_17 g_s16_16) (mem g_s17_19 (|-->| g_s16_16 g_s18_18)) (mem g_s19_20 (|-->| g_s16_16 g_s18_18)) (mem g_s20_21 (|+->| g_s16_16 g_s4_5)) (mem g_s21_22 (|+->| g_s16_16 g_s4_5)) (= (binary_union (ran g_s17_19) (ran g_s19_20)) g_s18_18) (= (binary_inter (ran g_s17_19) (ran g_s19_20)) empty) (mem g_s22_25 (|<->| g_s23_24 g_s24_23)) (mem g_s25_27 (|-->| g_s23_24 (POW g_s26_26))) (mem g_s27_28 (seq g_s24_23)) (forall ((l_s28 U)) (=> (mem l_s28 g_s23_24) (= (image g_s22_25 (SET l_s28)) (image g_s27_28 (apply g_s25_27 l_s28))))) (forall ((l_s28 U)) (=> (mem l_s28 g_s23_24) (subset (apply g_s25_27 l_s28) (dom g_s27_28)))) (forall ((l_s28 U)) (=> (mem l_s28 g_s23_24) (mem (domain_restriction (apply g_s25_27 l_s28) g_s27_28) (|>+>| NATURAL g_s24_23)))) (forall ((l_s28 U)) (=> (and (mem l_s28 g_s23_24) (not (= (apply g_s25_27 l_s28) empty))) (= (apply g_s25_27 l_s28) (interval (imin (apply g_s25_27 l_s28)) (imax (apply g_s25_27 l_s28)))))) (mem g_s29_29 (|<->| g_s23_24 g_s24_23)) (mem g_s30_30 (|-->| g_s23_24 (POW g_s26_26))) (mem g_s31_31 (seq g_s24_23)) (forall ((l_s28 U)) (=> (mem l_s28 g_s23_24) (= (image g_s29_29 (SET l_s28)) (image g_s31_31 (apply g_s30_30 l_s28))))) (forall ((l_s28 U)) (=> (mem l_s28 g_s23_24) (subset (apply g_s30_30 l_s28) (dom g_s31_31)))) (forall ((l_s28 U)) (=> (mem l_s28 g_s23_24) (mem (domain_restriction (apply g_s30_30 l_s28) g_s31_31) (|>+>| NATURAL g_s24_23)))) (forall ((l_s28 U)) (=> (and (mem l_s28 g_s23_24) (not (= (apply g_s30_30 l_s28) empty))) (= (apply g_s30_30 l_s28) (interval (imin (apply g_s30_30 l_s28)) (imax (apply g_s30_30 l_s28)))))) (mem g_s32_33 (|<->| g_s23_24 g_s33_32)) (mem g_s34_34 (|-->| g_s23_24 (POW g_s26_26))) (mem g_s35_35 (seq g_s33_32)) (forall ((l_s28 U)) (=> (mem l_s28 g_s23_24) (= (image g_s32_33 (SET l_s28)) (image g_s35_35 (apply g_s34_34 l_s28))))) (forall ((l_s28 U)) (=> (mem l_s28 g_s23_24) (subset (apply g_s34_34 l_s28) (dom g_s35_35)))) (forall ((l_s28 U)) (=> (mem l_s28 g_s23_24) (mem (domain_restriction (apply g_s34_34 l_s28) g_s35_35) (|>+>| NATURAL g_s33_32)))) (forall ((l_s28 U)) (=> (and (mem l_s28 g_s23_24) (not (= (apply g_s34_34 l_s28) empty))) (= (apply g_s34_34 l_s28) (interval (imin (apply g_s34_34 l_s28)) (imax (apply g_s34_34 l_s28)))))) (mem g_s36_37 (|<->| g_s33_32 g_s37_36)) (mem g_s38_38 (|-->| g_s33_32 (POW g_s26_26))) (mem g_s39_39 (seq g_s37_36)) (forall ((l_s28 U)) (=> (mem l_s28 g_s33_32) (= (image g_s36_37 (SET l_s28)) (image g_s39_39 (apply g_s38_38 l_s28))))) (forall ((l_s28 U)) (=> (mem l_s28 g_s33_32) (subset (apply g_s38_38 l_s28) (dom g_s39_39)))) (forall ((l_s28 U)) (=> (mem l_s28 g_s33_32) (mem (domain_restriction (apply g_s38_38 l_s28) g_s39_39) (|>+>| NATURAL g_s37_36)))) (forall ((l_s28 U)) (=> (and (mem l_s28 g_s33_32) (not (= (apply g_s38_38 l_s28) empty))) (= (apply g_s38_38 l_s28) (interval (imin (apply g_s38_38 l_s28)) (imax (apply g_s38_38 l_s28)))))) (mem g_s40_40 (|<->| g_s33_32 g_s37_36)) (mem g_s41_41 (|-->| g_s33_32 (POW g_s26_26))) (mem g_s42_42 (seq g_s37_36)) (forall ((l_s28 U)) (=> (mem l_s28 g_s33_32) (= (image g_s40_40 (SET l_s28)) (image g_s42_42 (apply g_s41_41 l_s28))))) (forall ((l_s28 U)) (=> (mem l_s28 g_s33_32) (subset (apply g_s41_41 l_s28) (dom g_s42_42)))) (forall ((l_s28 U)) (=> (mem l_s28 g_s33_32) (mem (domain_restriction (apply g_s41_41 l_s28) g_s42_42) (|>+>| NATURAL g_s37_36)))) (forall ((l_s28 U)) (=> (and (mem l_s28 g_s33_32) (not (= (apply g_s41_41 l_s28) empty))) (= (apply g_s41_41 l_s28) (interval (imin (apply g_s41_41 l_s28)) (imax (apply g_s41_41 l_s28)))))) (mem g_s43_43 (|<->| g_s33_32 g_s18_18)) (mem g_s44_44 (|-->| g_s33_32 (POW g_s26_26))) (mem g_s45_45 (seq g_s18_18)) (forall ((l_s28 U)) (=> (mem l_s28 g_s33_32) (= (image g_s43_43 (SET l_s28)) (image g_s45_45 (apply g_s44_44 l_s28))))) (forall ((l_s28 U)) (=> (mem l_s28 g_s33_32) (subset (apply g_s44_44 l_s28) (dom g_s45_45)))) (forall ((l_s28 U)) (=> (mem l_s28 g_s33_32) (mem (domain_restriction (apply g_s44_44 l_s28) g_s45_45) (|>+>| NATURAL g_s18_18)))) (forall ((l_s28 U)) (=> (and (mem l_s28 g_s33_32) (not (= (apply g_s44_44 l_s28) empty))) (= (apply g_s44_44 l_s28) (interval (imin (apply g_s44_44 l_s28)) (imax (apply g_s44_44 l_s28)))))) (mem g_s46_47 (|-->| g_s23_24 g_s47_46)) (mem g_s48_48 (|+->| g_s23_24 g_s4_5)) (mem g_s49_49 (|+->| g_s23_24 g_s4_5)) (mem g_s50_51 (|+->| g_s23_24 g_s51_50)) (mem g_s52_53 (|+->| g_s23_24 g_s53_52)) (mem g_s54_55 (|+->| g_s23_24 g_s55_54)) (subset g_s56_56 g_s23_24) (subset g_s57_57 g_s23_24) (subset g_s58_58 g_s23_24) (subset g_s59_59 g_s33_32) (mem g_s60_61 (|+->| g_s33_32 g_s61_60)) (mem g_s62_63 (|+->| g_s33_32 g_s63_62)) (mem g_s64_65 (|-->| g_s59_59 g_s65_64)) (= (dom g_s60_61) g_s59_59) (= (dom g_s62_63) g_s59_59) (mem g_s66_67 (|+->| g_s67_66 g_s4_5)) (mem g_s68_68 (|+->| g_s67_66 g_s4_5)) (subset g_s69_69 g_s67_66) (subset g_s70_70 g_s67_66) (subset g_s71_71 g_s67_66) (= (binary_inter (binary_inter g_s69_69 g_s70_70) g_s71_71) empty) (= (binary_union (binary_union g_s69_69 g_s70_70) g_s71_71) g_s67_66) (mem g_s72_73 (|+->| g_s67_66 g_s73_72)) (mem g_s74_74 (|+->| g_s67_66 g_s73_72)) (mem g_s75_75 (|-->| g_s73_72 g_s67_66)) (= (binary_union (ran g_s72_73) (ran g_s74_74)) g_s73_72) (= (binary_inter (ran g_s72_73) (ran g_s74_74)) empty) (mem g_s76_77 (|+->| (set_prod g_s67_66 g_s77_76) g_s73_72)) (mem g_s78_79 (|-->| g_s79_78 g_s73_72)) (mem g_s80_81 (|+->| g_s73_72 g_s81_80)) (mem g_s82_83 (|>+>| g_s73_72 g_s83_82)) (mem g_s84_84 (|<->| g_s81_80 g_s73_72)) (mem g_s85_85 (|-->| g_s81_80 (POW g_s26_26))) (mem g_s86_86 (seq g_s73_72)) (forall ((l_s28 U)) (=> (mem l_s28 g_s81_80) (= (image g_s84_84 (SET l_s28)) (image g_s86_86 (apply g_s85_85 l_s28))))) (forall ((l_s28 U)) (=> (mem l_s28 g_s81_80) (subset (apply g_s85_85 l_s28) (dom g_s86_86)))) (forall ((l_s28 U)) (=> (mem l_s28 g_s81_80) (mem (domain_restriction (apply g_s85_85 l_s28) g_s86_86) (|>+>| NATURAL g_s73_72)))) (forall ((l_s28 U)) (=> (and (mem l_s28 g_s81_80) (not (= (apply g_s85_85 l_s28) empty))) (= (apply g_s85_85 l_s28) (interval (imin (apply g_s85_85 l_s28)) (imax (apply g_s85_85 l_s28)))))) (mem g_s87_89 (|+->| (set_prod g_s67_66 g_s88_88) g_s89_87)) (mem g_s90_92 (|-->| g_s91_91 g_s92_90)) (mem g_s93_93 (|+->| g_s91_91 g_s24_23)) (mem g_s94_94 (|+->| g_s91_91 g_s4_5)) (mem g_s95_97 (|+->| (set_prod g_s91_91 g_s96_96) g_s97_95)) (mem g_s98_99 (|+->| (set_prod g_s99_98 g_s92_90) g_s91_91)) (subset g_s100_100 g_s91_91) (mem g_s101_102 (|+->| g_s102_101 g_s4_5)) (mem g_s103_103 (|+->| (set_prod g_s102_101 g_s92_90) g_s24_23)) (subset g_s104_104 g_s102_101) (mem g_s105_106 (|<->| g_s106_105 g_s73_72)) (mem g_s107_107 (|-->| g_s106_105 (POW g_s26_26))) (mem g_s108_108 (seq g_s73_72)) (forall ((l_s28 U)) (=> (mem l_s28 g_s106_105) (= (image g_s105_106 (SET l_s28)) (image g_s108_108 (apply g_s107_107 l_s28))))) (forall ((l_s28 U)) (=> (mem l_s28 g_s106_105) (subset (apply g_s107_107 l_s28) (dom g_s108_108)))) (forall ((l_s28 U)) (=> (mem l_s28 g_s106_105) (mem (domain_restriction (apply g_s107_107 l_s28) g_s108_108) (|>+>| NATURAL g_s73_72)))) (forall ((l_s28 U)) (=> (and (mem l_s28 g_s106_105) (not (= (apply g_s107_107 l_s28) empty))) (= (apply g_s107_107 l_s28) (interval (imin (apply g_s107_107 l_s28)) (imax (apply g_s107_107 l_s28)))))) (mem g_s109_110 (|<->| g_s106_105 g_s110_109)) (mem g_s111_111 (|-->| g_s106_105 (POW g_s26_26))) (mem g_s112_112 (seq g_s110_109)) (forall ((l_s28 U)) (=> (mem l_s28 g_s106_105) (= (image g_s109_110 (SET l_s28)) (image g_s112_112 (apply g_s111_111 l_s28))))) (forall ((l_s28 U)) (=> (mem l_s28 g_s106_105) (subset (apply g_s111_111 l_s28) (dom g_s112_112)))) (forall ((l_s28 U)) (=> (mem l_s28 g_s106_105) (mem (domain_restriction (apply g_s111_111 l_s28) g_s112_112) (|>+>| NATURAL g_s110_109)))) (forall ((l_s28 U)) (=> (and (mem l_s28 g_s106_105) (not (= (apply g_s111_111 l_s28) empty))) (= (apply g_s111_111 l_s28) (interval (imin (apply g_s111_111 l_s28)) (imax (apply g_s111_111 l_s28)))))) (mem g_s113_114 (|<->| g_s106_105 g_s114_113)) (mem g_s115_115 (|-->| g_s106_105 (POW g_s26_26))) (mem g_s116_116 (seq g_s114_113)) (forall ((l_s28 U)) (=> (mem l_s28 g_s106_105) (= (image g_s113_114 (SET l_s28)) (image g_s116_116 (apply g_s115_115 l_s28))))) (forall ((l_s28 U)) (=> (mem l_s28 g_s106_105) (subset (apply g_s115_115 l_s28) (dom g_s116_116)))) (forall ((l_s28 U)) (=> (mem l_s28 g_s106_105) (mem (domain_restriction (apply g_s115_115 l_s28) g_s116_116) (|>+>| NATURAL g_s114_113)))) (forall ((l_s28 U)) (=> (and (mem l_s28 g_s106_105) (not (= (apply g_s115_115 l_s28) empty))) (= (apply g_s115_115 l_s28) (interval (imin (apply g_s115_115 l_s28)) (imax (apply g_s115_115 l_s28)))))) (mem g_s117_117 (|+->| g_s106_105 g_s4_5)) (mem g_s118_119 (|<->| g_s106_105 g_s119_118)) (mem g_s120_120 (|-->| g_s106_105 (POW g_s26_26))) (mem g_s121_121 (seq g_s119_118)) (forall ((l_s28 U)) (=> (mem l_s28 g_s106_105) (= (image g_s118_119 (SET l_s28)) (image g_s121_121 (apply g_s120_120 l_s28))))) (forall ((l_s28 U)) (=> (mem l_s28 g_s106_105) (subset (apply g_s120_120 l_s28) (dom g_s121_121)))) (forall ((l_s28 U)) (=> (mem l_s28 g_s106_105) (mem (domain_restriction (apply g_s120_120 l_s28) g_s121_121) (|>+>| NATURAL g_s119_118)))) (forall ((l_s28 U)) (=> (and (mem l_s28 g_s106_105) (not (= (apply g_s120_120 l_s28) empty))) (= (apply g_s120_120 l_s28) (interval (imin (apply g_s120_120 l_s28)) (imax (apply g_s120_120 l_s28))))))))
(define-fun |def_seext| () Bool true)
(define-fun |def_lprp| () Bool true)
(define-fun |def_inprp| () Bool true)
(define-fun |def_inext| () Bool true)
(define-fun |def_inv| () Bool (and (mem g_s122_122 (|<->| g_s4_5 g_s12_13)) (mem g_s123_123 (|<->| g_s4_5 g_s9_10))))
(define-fun |def_ass| () Bool true)
(define-fun |def_cst| () Bool true)
(define-fun |def_sets| () Bool true)
; PO group 0 
(assert |def_B definitions|)
(assert |def_ctx|)
(assert |def_cst|)
(assert |def_lprp|)
(assert |def_inprp|)
(assert |def_inext|)
(assert |def_seext|)
(assert |def_inv|)
(assert |def_ass|)
(assert (mem g_s125_124 g_s0_1))
(assert (mem g_s125_124 g_s4_5))
(assert (mem g_s126_125 g_s2_3))
(assert (mem g_s126_125 g_s9_10))
(assert (mem g_s127_126 BOOL))
(define-fun lh_1 () Bool (= g_s127_126 TRUE))
; PO 1 in group 0
(assert (not (=> lh_1 (mem (binary_union g_s123_123 (SET (mapplet g_s125_124 g_s126_125))) (|<->| g_s4_5 g_s9_10)))))
(check-sat)
(exit)